p cnf 957 2454
51 -690 -691 0
-51 690 0
-51 691 0
52 -51 -3 0
-52 51 0
-52 3 0
53 -5 -4 0
-53 5 0
-53 4 0
54 -53 -692 0
-54 53 0
-54 692 0
55 -693 -694 0
-55 693 0
-55 694 0
56 -695 -7 0
-56 695 0
-56 7 0
57 -56 -696 0
-57 56 0
-57 696 0
58 -697 -55 0
-58 697 0
-58 55 0
59 -698 -10 0
-59 698 0
-59 10 0
60 -59 -12 0
-60 59 0
-60 12 0
61 -699 -58 0
-61 699 0
-61 58 0
62 -700 -13 0
-62 700 0
-62 13 0
63 -62 -3 0
-63 62 0
-63 3 0
64 -701 -61 0
-64 701 0
-64 61 0
65 -16 -702 0
-65 16 0
-65 702 0
66 -65 -703 0
-66 65 0
-66 703 0
67 -704 -64 0
-67 704 0
-67 64 0
68 -11 -705 0
-68 11 0
-68 705 0
69 -68 -706 0
-69 68 0
-69 706 0
70 -707 -67 0
-70 707 0
-70 67 0
71 -708 -4 0
-71 708 0
-71 4 0
72 -71 -19 0
-72 71 0
-72 19 0
73 -709 -70 0
-73 709 0
-73 70 0
74 -20 -702 0
-74 20 0
-74 702 0
75 -74 -21 0
-75 74 0
-75 21 0
76 -710 -73 0
-76 710 0
-76 73 0
77 -711 -702 0
-77 711 0
-77 702 0
78 -77 -23 0
-78 77 0
-78 23 0
79 -712 -76 0
-79 712 0
-79 76 0
80 -713 -714 0
-80 713 0
-80 714 0
81 -80 -715 0
-81 80 0
-81 715 0
82 -716 -79 0
-82 716 0
-82 79 0
83 -717 -18 0
-83 717 0
-83 18 0
84 -83 -692 0
-84 83 0
-84 692 0
85 -718 -82 0
-85 718 0
-85 82 0
86 -28 -7 0
-86 28 0
-86 7 0
87 -86 -719 0
-87 86 0
-87 719 0
88 -720 -85 0
-88 720 0
-88 85 0
89 -721 -7 0
-89 721 0
-89 7 0
90 -89 -722 0
-90 89 0
-90 722 0
91 -723 -88 0
-91 723 0
-91 88 0
92 -29 -19 0
-92 29 0
-92 19 0
93 -92 -3 0
-93 92 0
-93 3 0
94 -724 -91 0
-94 724 0
-94 91 0
95 -31 -690 0
-95 31 0
-95 690 0
96 -95 -6 0
-96 95 0
-96 6 0
97 -725 -94 0
-97 725 0
-97 94 0
98 -726 -24 0
-98 726 0
-98 24 0
99 -98 -727 0
-99 98 0
-99 727 0
100 -728 -97 0
-100 728 0
-100 97 0
101 -33 -10 0
-101 33 0
-101 10 0
102 -101 -25 0
-102 101 0
-102 25 0
103 -729 -100 0
-103 729 0
-103 100 0
104 -714 -5 0
-104 714 0
-104 5 0
105 -104 -692 0
-105 104 0
-105 692 0
106 -730 -103 0
-106 730 0
-106 103 0
107 -34 -2 0
-107 34 0
-107 2 0
108 -107 -731 0
-108 107 0
-108 731 0
109 -732 -106 0
-109 732 0
-109 106 0
110 -36 -35 0
-110 36 0
-110 35 0
111 -110 -30 0
-111 110 0
-111 30 0
112 -733 -109 0
-112 733 0
-112 109 0
113 -37 -13 0
-113 37 0
-113 13 0
114 -113 -734 0
-114 113 0
-114 734 0
115 -735 -112 0
-115 735 0
-115 112 0
116 -736 -695 0
-116 736 0
-116 695 0
117 -116 -17 0
-117 116 0
-117 17 0
118 -737 -115 0
-118 737 0
-118 115 0
119 -738 -23 0
-119 738 0
-119 23 0
120 -119 -739 0
-120 119 0
-120 739 0
121 -740 -118 0
-121 740 0
-121 118 0
122 -738 -702 0
-122 738 0
-122 702 0
123 -122 -711 0
-123 122 0
-123 711 0
124 -741 -121 0
-124 741 0
-124 121 0
125 -742 -37 0
-125 742 0
-125 37 0
126 -125 -41 0
-126 125 0
-126 41 0
127 -743 -124 0
-127 743 0
-127 124 0
128 -18 -4 0
-128 18 0
-128 4 0
129 -128 -717 0
-129 128 0
-129 717 0
130 -744 -127 0
-130 744 0
-130 127 0
131 -42 -745 0
-131 42 0
-131 745 0
132 -131 -700 0
-132 131 0
-132 700 0
133 -746 -130 0
-133 746 0
-133 130 0
134 -713 -13 0
-134 713 0
-134 13 0
135 -134 -38 0
-135 134 0
-135 38 0
136 -747 -133 0
-136 747 0
-136 133 0
137 -43 -22 0
-137 43 0
-137 22 0
138 -137 -748 0
-138 137 0
-138 748 0
139 -749 -136 0
-139 749 0
-139 136 0
140 -750 -705 0
-140 750 0
-140 705 0
141 -140 -727 0
-141 140 0
-141 727 0
142 -751 -139 0
-142 751 0
-142 139 0
143 -44 -736 0
-143 44 0
-143 736 0
144 -143 -30 0
-144 143 0
-144 30 0
145 -752 -142 0
-145 752 0
-145 142 0
146 -753 -702 0
-146 753 0
-146 702 0
147 -146 -28 0
-147 146 0
-147 28 0
148 -754 -145 0
-148 754 0
-148 145 0
149 -727 -24 0
-149 727 0
-149 24 0
150 -149 -27 0
-150 149 0
-150 27 0
151 -755 -148 0
-151 755 0
-151 148 0
152 -756 -40 0
-152 756 0
-152 40 0
153 -152 -47 0
-153 152 0
-153 47 0
154 -757 -151 0
-154 757 0
-154 151 0
155 -19 -690 0
-155 19 0
-155 690 0
156 -155 -18 0
-156 155 0
-156 18 0
157 -758 -154 0
-157 758 0
-157 154 0
158 -759 -13 0
-158 759 0
-158 13 0
159 -158 -17 0
-159 158 0
-159 17 0
160 -760 -157 0
-160 760 0
-160 157 0
161 -49 -42 0
-161 49 0
-161 42 0
162 -161 -36 0
-162 161 0
-162 36 0
163 -761 -160 0
-163 761 0
-163 160 0
164 -50 -40 0
-164 50 0
-164 40 0
165 -164 -739 0
-165 164 0
-165 739 0
166 -762 -163 0
-166 762 0
-166 163 0
167 -27 -690 0
-167 27 0
-167 690 0
168 -167 -763 0
-168 167 0
-168 763 0
169 -764 -166 0
-169 764 0
-169 166 0
170 -42 -37 0
-170 42 0
-170 37 0
171 -170 -703 0
-171 170 0
-171 703 0
172 -765 -169 0
-172 765 0
-172 169 0
173 -28 -702 0
-173 28 0
-173 702 0
174 -173 -719 0
-174 173 0
-174 719 0
175 -766 -172 0
-175 766 0
-175 172 0
176 -767 -711 0
-176 767 0
-176 711 0
177 -176 -696 0
-177 176 0
-177 696 0
178 -768 -175 0
-178 768 0
-178 175 0
179 -26 -769 0
-179 26 0
-179 769 0
180 -179 -736 0
-180 179 0
-180 736 0
181 -770 -178 0
-181 770 0
-181 178 0
182 -20 -4 0
-182 20 0
-182 4 0
183 -182 -771 0
-183 182 0
-183 771 0
184 -772 -181 0
-184 772 0
-184 181 0
185 -23 -21 0
-185 23 0
-185 21 0
186 -185 -722 0
-186 185 0
-186 722 0
187 -773 -184 0
-187 773 0
-187 184 0
188 -26 -698 0
-188 26 0
-188 698 0
189 -188 -30 0
-189 188 0
-189 30 0
190 -774 -187 0
-190 774 0
-190 187 0
191 -702 -691 0
-191 702 0
-191 691 0
192 -191 -775 0
-192 191 0
-192 775 0
193 -776 -190 0
-193 776 0
-193 190 0
194 -11 -2 0
-194 11 0
-194 2 0
195 -194 -29 0
-195 194 0
-195 29 0
196 -777 -193 0
-196 777 0
-196 193 0
197 -37 -1 0
-197 37 0
-197 1 0
198 -197 -711 0
-198 197 0
-198 711 0
199 -778 -196 0
-199 778 0
-199 196 0
200 -15 -11 0
-200 15 0
-200 11 0
201 -200 -23 0
-201 200 0
-201 23 0
202 -779 -199 0
-202 779 0
-202 199 0
203 -780 -714 0
-203 780 0
-203 714 0
204 -203 -781 0
-204 203 0
-204 781 0
205 -782 -202 0
-205 782 0
-205 202 0
206 -731 -8 0
-206 731 0
-206 8 0
207 -206 -21 0
-207 206 0
-207 21 0
208 -783 -205 0
-208 783 0
-208 205 0
209 -48 -10 0
-209 48 0
-209 10 0
210 -209 -17 0
-210 209 0
-210 17 0
211 -784 -208 0
-211 784 0
-211 208 0
212 -32 -785 0
-212 32 0
-212 785 0
213 -212 -38 0
-213 212 0
-213 38 0
214 -786 -211 0
-214 786 0
-214 211 0
215 -787 -771 0
-215 787 0
-215 771 0
216 -215 -47 0
-216 215 0
-216 47 0
217 -788 -214 0
-217 788 0
-217 214 0
218 -787 -690 0
-218 787 0
-218 690 0
219 -218 -763 0
-219 218 0
-219 763 0
220 -789 -217 0
-220 789 0
-220 217 0
221 -739 -1 0
-221 739 0
-221 1 0
222 -221 -769 0
-222 221 0
-222 769 0
223 -790 -220 0
-223 790 0
-223 220 0
224 -45 -7 0
-224 45 0
-224 7 0
225 -224 -28 0
-225 224 0
-225 28 0
226 -791 -223 0
-226 791 0
-226 223 0
227 -50 -792 0
-227 50 0
-227 792 0
228 -227 -719 0
-228 227 0
-228 719 0
229 -793 -226 0
-229 793 0
-229 226 0
230 -49 -690 0
-230 49 0
-230 690 0
231 -230 -711 0
-231 230 0
-231 711 0
232 -794 -229 0
-232 794 0
-232 229 0
233 -742 -4 0
-233 742 0
-233 4 0
234 -233 -692 0
-234 233 0
-234 692 0
235 -795 -232 0
-235 795 0
-235 232 0
236 -767 -12 0
-236 767 0
-236 12 0
237 -236 -17 0
-237 236 0
-237 17 0
238 -796 -235 0
-238 796 0
-238 235 0
239 -785 -771 0
-239 785 0
-239 771 0
240 -239 -47 0
-240 239 0
-240 47 0
241 -797 -238 0
-241 797 0
-241 238 0
242 -798 -690 0
-242 798 0
-242 690 0
243 -242 -47 0
-243 242 0
-243 47 0
244 -799 -241 0
-244 799 0
-244 241 0
245 -26 -2 0
-245 26 0
-245 2 0
246 -245 -719 0
-246 245 0
-246 719 0
247 -800 -244 0
-247 800 0
-247 244 0
248 -45 -8 0
-248 45 0
-248 8 0
249 -248 -692 0
-249 248 0
-249 692 0
250 -801 -247 0
-250 801 0
-250 247 0
251 -32 -705 0
-251 32 0
-251 705 0
252 -251 -703 0
-252 251 0
-252 703 0
253 -802 -250 0
-253 802 0
-253 250 0
254 -803 -12 0
-254 803 0
-254 12 0
255 -254 -38 0
-255 254 0
-255 38 0
256 -804 -253 0
-256 804 0
-256 253 0
257 -39 -4 0
-257 39 0
-257 4 0
258 -257 -27 0
-258 257 0
-258 27 0
259 -805 -256 0
-259 805 0
-259 256 0
260 -756 -713 0
-260 756 0
-260 713 0
261 -260 -739 0
-261 260 0
-261 739 0
262 -806 -259 0
-262 806 0
-262 259 0
263 -46 -742 0
-263 46 0
-263 742 0
264 -263 -713 0
-264 263 0
-264 713 0
265 -807 -262 0
-265 807 0
-265 262 0
266 -745 -798 0
-266 745 0
-266 798 0
267 -266 -27 0
-267 266 0
-267 27 0
268 -808 -265 0
-268 808 0
-268 265 0
269 -787 -713 0
-269 787 0
-269 713 0
270 -269 -41 0
-270 269 0
-270 41 0
271 -809 -268 0
-271 809 0
-271 268 0
272 -43 -700 0
-272 43 0
-272 700 0
273 -272 -736 0
-273 272 0
-273 736 0
274 -810 -271 0
-274 810 0
-274 271 0
275 -21 -708 0
-275 21 0
-275 708 0
276 -275 -736 0
-276 275 0
-276 736 0
277 -811 -274 0
-277 811 0
-277 274 0
278 -739 -711 0
-278 739 0
-278 711 0
279 -278 -27 0
-279 278 0
-279 27 0
280 -812 -277 0
-280 812 0
-280 277 0
281 -11 -7 0
-281 11 0
-281 7 0
282 -281 -18 0
-282 281 0
-282 18 0
283 -813 -280 0
-283 813 0
-283 280 0
284 -14 -705 0
-284 14 0
-284 705 0
285 -284 -785 0
-285 284 0
-285 785 0
286 -814 -283 0
-286 814 0
-286 283 0
287 -15 -798 0
-287 15 0
-287 798 0
288 -287 -815 0
-288 287 0
-288 815 0
289 -816 -286 0
-289 816 0
-289 286 0
290 -20 -13 0
-290 20 0
-290 13 0
291 -290 -769 0
-291 290 0
-291 769 0
292 -817 -289 0
-292 817 0
-292 289 0
293 -738 -8 0
-293 738 0
-293 8 0
294 -293 -818 0
-294 293 0
-294 818 0
295 -819 -292 0
-295 819 0
-295 292 0
296 -203 -706 0
-296 203 0
-296 706 0
297 -820 -295 0
-297 820 0
-297 295 0
298 -40 -798 0
-298 40 0
-298 798 0
299 -298 -47 0
-299 298 0
-299 47 0
300 -821 -297 0
-300 821 0
-300 297 0
301 -750 -695 0
-301 750 0
-301 695 0
302 -301 -28 0
-302 301 0
-302 28 0
303 -822 -300 0
-303 822 0
-303 300 0
304 -14 -775 0
-304 14 0
-304 775 0
305 -304 -823 0
-305 304 0
-305 823 0
306 -824 -303 0
-306 824 0
-306 303 0
307 -95 -713 0
-307 95 0
-307 713 0
308 -825 -306 0
-308 825 0
-308 306 0
309 -33 -20 0
-309 33 0
-309 20 0
310 -309 -815 0
-310 309 0
-310 815 0
311 -826 -308 0
-311 826 0
-311 308 0
312 -759 -24 0
-312 759 0
-312 24 0
313 -312 -734 0
-313 312 0
-313 734 0
314 -827 -311 0
-314 827 0
-314 311 0
315 -759 -745 0
-315 759 0
-315 745 0
316 -315 -17 0
-316 315 0
-316 17 0
317 -828 -314 0
-317 828 0
-317 314 0
318 -50 -5 0
-318 50 0
-318 5 0
319 -318 -30 0
-319 318 0
-319 30 0
320 -829 -317 0
-320 829 0
-320 317 0
321 -714 -13 0
-321 714 0
-321 13 0
322 -321 -43 0
-322 321 0
-322 43 0
323 -830 -320 0
-323 830 0
-323 320 0
324 -35 -714 0
-324 35 0
-324 714 0
325 -324 -17 0
-325 324 0
-325 17 0
326 -831 -323 0
-326 831 0
-326 323 0
327 -32 -691 0
-327 32 0
-327 691 0
328 -327 -798 0
-328 327 0
-328 798 0
329 -832 -326 0
-329 832 0
-329 326 0
330 -11 -10 0
-330 11 0
-330 10 0
331 -330 -781 0
-331 330 0
-331 781 0
332 -833 -329 0
-332 833 0
-332 329 0
333 -35 -31 0
-333 35 0
-333 31 0
334 -333 -25 0
-334 333 0
-334 25 0
335 -834 -332 0
-335 834 0
-335 332 0
336 -759 -717 0
-336 759 0
-336 717 0
337 -336 -692 0
-337 336 0
-337 692 0
338 -835 -335 0
-338 835 0
-338 335 0
339 -50 -33 0
-339 50 0
-339 33 0
340 -339 -43 0
-340 339 0
-340 43 0
341 -836 -338 0
-341 836 0
-341 338 0
342 -787 -708 0
-342 787 0
-342 708 0
343 -342 -717 0
-343 342 0
-343 717 0
344 -837 -341 0
-344 837 0
-344 341 0
345 -31 -708 0
-345 31 0
-345 708 0
346 -345 -713 0
-346 345 0
-346 713 0
347 -838 -344 0
-347 838 0
-347 344 0
348 -727 -721 0
-348 727 0
-348 721 0
349 -348 -47 0
-349 348 0
-349 47 0
350 -839 -347 0
-350 839 0
-350 347 0
351 -745 -4 0
-351 745 0
-351 4 0
352 -351 -769 0
-352 351 0
-352 769 0
353 -840 -350 0
-353 840 0
-353 350 0
354 -43 -698 0
-354 43 0
-354 698 0
355 -354 -40 0
-355 354 0
-355 40 0
356 -841 -353 0
-356 841 0
-356 353 0
357 -759 -700 0
-357 759 0
-357 700 0
358 -357 -815 0
-358 357 0
-358 815 0
359 -842 -356 0
-359 842 0
-359 356 0
360 -43 -711 0
-360 43 0
-360 711 0
361 -360 -696 0
-361 360 0
-361 696 0
362 -843 -359 0
-362 843 0
-362 359 0
363 -50 -691 0
-363 50 0
-363 691 0
364 -363 -823 0
-364 363 0
-364 823 0
365 -844 -362 0
-365 844 0
-365 362 0
366 -759 -750 0
-366 759 0
-366 750 0
367 -366 -40 0
-367 366 0
-367 40 0
368 -845 -365 0
-368 845 0
-368 365 0
369 -25 -18 0
-369 25 0
-369 18 0
370 -369 -5 0
-370 369 0
-370 5 0
371 -846 -368 0
-371 846 0
-371 368 0
372 -767 -769 0
-372 767 0
-372 769 0
373 -372 -736 0
-373 372 0
-373 736 0
374 -847 -371 0
-374 847 0
-374 371 0
375 -29 -696 0
-375 29 0
-375 696 0
376 -375 -818 0
-376 375 0
-376 818 0
377 -848 -374 0
-377 848 0
-377 374 0
378 -48 -702 0
-378 48 0
-378 702 0
379 -378 -731 0
-379 378 0
-379 731 0
380 -849 -377 0
-380 849 0
-380 377 0
381 -717 -23 0
-381 717 0
-381 23 0
382 -381 -692 0
-382 381 0
-382 692 0
383 -850 -380 0
-383 850 0
-383 380 0
384 -24 -700 0
-384 24 0
-384 700 0
385 -384 -41 0
-385 384 0
-385 41 0
386 -851 -383 0
-386 851 0
-386 383 0
387 -785 -11 0
-387 785 0
-387 11 0
388 -387 -703 0
-388 387 0
-388 703 0
389 -852 -386 0
-389 852 0
-389 386 0
390 -742 -31 0
-390 742 0
-390 31 0
391 -390 -696 0
-391 390 0
-391 696 0
392 -853 -389 0
-392 853 0
-392 389 0
393 -28 -705 0
-393 28 0
-393 705 0
394 -393 -19 0
-394 393 0
-394 19 0
395 -854 -392 0
-395 854 0
-395 392 0
396 -785 -10 0
-396 785 0
-396 10 0
397 -396 -722 0
-397 396 0
-397 722 0
398 -855 -395 0
-398 855 0
-398 395 0
399 -742 -28 0
-399 742 0
-399 28 0
400 -399 -30 0
-400 399 0
-400 30 0
401 -856 -398 0
-401 856 0
-401 398 0
402 -767 -2 0
-402 767 0
-402 2 0
403 -402 -4 0
-403 402 0
-403 4 0
404 -857 -401 0
-404 857 0
-404 401 0
405 -50 -42 0
-405 50 0
-405 42 0
406 -405 -8 0
-406 405 0
-406 8 0
407 -858 -404 0
-407 858 0
-407 404 0
408 -756 -750 0
-408 756 0
-408 750 0
409 -408 -769 0
-409 408 0
-409 769 0
410 -859 -407 0
-410 859 0
-410 407 0
411 -745 -11 0
-411 745 0
-411 11 0
412 -411 -39 0
-412 411 0
-412 39 0
413 -860 -410 0
-413 860 0
-413 410 0
414 -11 -695 0
-414 11 0
-414 695 0
415 -414 -39 0
-415 414 0
-415 39 0
416 -861 -413 0
-416 861 0
-416 413 0
417 -862 -702 0
-417 862 0
-417 702 0
418 -417 -715 0
-418 417 0
-418 715 0
419 -863 -416 0
-419 863 0
-419 416 0
420 -780 -16 0
-420 780 0
-420 16 0
421 -420 -798 0
-421 420 0
-421 798 0
422 -864 -419 0
-422 864 0
-422 419 0
423 -26 -702 0
-423 26 0
-423 702 0
424 -423 -47 0
-424 423 0
-424 47 0
425 -865 -422 0
-425 865 0
-425 422 0
426 -750 -745 0
-426 750 0
-426 745 0
427 -426 -756 0
-427 426 0
-427 756 0
428 -866 -425 0
-428 866 0
-428 425 0
429 -756 -4 0
-429 756 0
-429 4 0
430 -429 -38 0
-430 429 0
-430 38 0
431 -867 -428 0
-431 867 0
-431 428 0
432 -702 -775 0
-432 702 0
-432 775 0
433 -432 -31 0
-433 432 0
-433 31 0
434 -868 -431 0
-434 868 0
-434 431 0
435 -46 -753 0
-435 46 0
-435 753 0
436 -435 -781 0
-436 435 0
-436 781 0
437 -869 -434 0
-437 869 0
-437 434 0
438 -45 -714 0
-438 45 0
-438 714 0
439 -438 -731 0
-439 438 0
-439 731 0
440 -870 -437 0
-440 870 0
-440 437 0
441 -726 -20 0
-441 726 0
-441 20 0
442 -441 -27 0
-442 441 0
-442 27 0
443 -871 -440 0
-443 871 0
-443 440 0
444 -721 -27 0
-444 721 0
-444 27 0
445 -444 -815 0
-445 444 0
-445 815 0
446 -872 -443 0
-446 872 0
-446 443 0
447 -48 -862 0
-447 48 0
-447 862 0
448 -447 -726 0
-448 447 0
-448 726 0
449 -873 -446 0
-449 873 0
-449 446 0
450 -44 -12 0
-450 44 0
-450 12 0
451 -450 -818 0
-451 450 0
-451 818 0
452 -874 -449 0
-452 874 0
-452 449 0
453 -34 -721 0
-453 34 0
-453 721 0
454 -453 -6 0
-454 453 0
-454 6 0
455 -875 -452 0
-455 875 0
-455 452 0
456 -354 -711 0
-456 354 0
-456 711 0
457 -876 -455 0
-457 876 0
-457 455 0
458 -803 -20 0
-458 803 0
-458 20 0
459 -458 -703 0
-459 458 0
-459 703 0
460 -877 -457 0
-460 877 0
-460 457 0
461 -49 -13 0
-461 49 0
-461 13 0
462 -461 -25 0
-462 461 0
-462 25 0
463 -878 -460 0
-463 878 0
-463 460 0
464 -736 -781 0
-464 736 0
-464 781 0
465 -464 -9 0
-465 464 0
-465 9 0
466 -879 -463 0
-466 879 0
-466 463 0
467 -298 -12 0
-467 298 0
-467 12 0
468 -880 -466 0
-468 880 0
-468 466 0
469 -787 -698 0
-469 787 0
-469 698 0
470 -469 -739 0
-470 469 0
-470 739 0
471 -881 -468 0
-471 881 0
-471 468 0
472 -33 -705 0
-472 33 0
-472 705 0
473 -472 -703 0
-473 472 0
-473 703 0
474 -882 -471 0
-474 882 0
-474 471 0
475 -767 -35 0
-475 767 0
-475 35 0
476 -475 -39 0
-476 475 0
-476 39 0
477 -883 -474 0
-477 883 0
-477 474 0
478 -49 -15 0
-478 49 0
-478 15 0
479 -478 -781 0
-479 478 0
-479 781 0
480 -884 -477 0
-480 884 0
-480 477 0
481 -698 -1 0
-481 698 0
-481 1 0
482 -481 -803 0
-482 481 0
-482 803 0
483 -885 -480 0
-483 885 0
-483 480 0
484 -31 -23 0
-484 31 0
-484 23 0
485 -484 -39 0
-485 484 0
-485 39 0
486 -886 -483 0
-486 886 0
-486 483 0
487 -35 -7 0
-487 35 0
-487 7 0
488 -487 -30 0
-488 487 0
-488 30 0
489 -887 -486 0
-489 887 0
-489 486 0
490 -714 -691 0
-490 714 0
-490 691 0
491 -490 -759 0
-491 490 0
-491 759 0
492 -888 -489 0
-492 888 0
-492 489 0
493 -731 -691 0
-493 731 0
-493 691 0
494 -493 -18 0
-494 493 0
-494 18 0
495 -889 -492 0
-495 889 0
-495 492 0
496 -792 -33 0
-496 792 0
-496 33 0
497 -496 -4 0
-497 496 0
-497 4 0
498 -890 -495 0
-498 890 0
-498 495 0
499 -309 -736 0
-499 309 0
-499 736 0
500 -891 -498 0
-500 891 0
-500 498 0
501 -48 -700 0
-501 48 0
-501 700 0
502 -501 -47 0
-502 501 0
-502 47 0
503 -892 -500 0
-503 892 0
-503 500 0
504 -164 -763 0
-504 164 0
-504 763 0
505 -893 -503 0
-505 893 0
-505 503 0
506 -269 -36 0
-506 269 0
-506 36 0
507 -894 -505 0
-507 894 0
-507 505 0
508 -230 -781 0
-508 230 0
-508 781 0
509 -895 -507 0
-509 895 0
-509 507 0
510 -759 -739 0
-510 759 0
-510 739 0
511 -510 -47 0
-511 510 0
-511 47 0
512 -896 -509 0
-512 896 0
-512 509 0
513 -759 -695 0
-513 759 0
-513 695 0
514 -513 -763 0
-514 513 0
-514 763 0
515 -897 -512 0
-515 897 0
-515 512 0
516 -281 -769 0
-516 281 0
-516 769 0
517 -898 -515 0
-517 898 0
-517 515 0
518 -750 -775 0
-518 750 0
-518 775 0
519 -518 -8 0
-519 518 0
-519 8 0
520 -899 -517 0
-520 899 0
-520 517 0
521 -33 -26 0
-521 33 0
-521 26 0
522 -521 -803 0
-522 521 0
-522 803 0
523 -900 -520 0
-523 900 0
-523 520 0
524 -792 -16 0
-524 792 0
-524 16 0
525 -524 -823 0
-525 524 0
-525 823 0
526 -901 -523 0
-526 901 0
-526 523 0
527 -767 -745 0
-527 767 0
-527 745 0
528 -527 -17 0
-528 527 0
-528 17 0
529 -902 -526 0
-529 902 0
-529 526 0
530 -767 -13 0
-530 767 0
-530 13 0
531 -530 -20 0
-531 530 0
-531 20 0
532 -903 -529 0
-532 903 0
-532 529 0
533 -780 -23 0
-533 780 0
-533 23 0
534 -533 -18 0
-534 533 0
-534 18 0
535 -904 -532 0
-535 904 0
-535 532 0
536 -769 -798 0
-536 769 0
-536 798 0
537 -536 -719 0
-537 536 0
-537 719 0
538 -905 -535 0
-538 905 0
-538 535 0
539 -49 -726 0
-539 49 0
-539 726 0
540 -539 -781 0
-540 539 0
-540 781 0
541 -906 -538 0
-541 906 0
-541 538 0
542 -24 -7 0
-542 24 0
-542 7 0
543 -542 -713 0
-543 542 0
-543 713 0
544 -907 -541 0
-544 907 0
-544 541 0
545 -25 -705 0
-545 25 0
-545 705 0
546 -545 -785 0
-546 545 0
-546 785 0
547 -908 -544 0
-547 908 0
-547 544 0
548 -736 -734 0
-548 736 0
-548 734 0
549 -548 -41 0
-549 548 0
-549 41 0
550 -909 -547 0
-550 909 0
-550 547 0
551 -11 -690 0
-551 11 0
-551 690 0
552 -551 -38 0
-552 551 0
-552 38 0
553 -910 -550 0
-553 910 0
-553 550 0
554 -803 -705 0
-554 803 0
-554 705 0
555 -554 -763 0
-555 554 0
-555 763 0
556 -911 -553 0
-556 911 0
-556 553 0
557 -742 -15 0
-557 742 0
-557 15 0
558 -557 -727 0
-558 557 0
-558 727 0
559 -912 -556 0
-559 912 0
-559 556 0
560 -24 -22 0
-560 24 0
-560 22 0
561 -560 -21 0
-561 560 0
-561 21 0
562 -913 -559 0
-562 913 0
-562 559 0
563 -36 -823 0
-563 36 0
-563 823 0
564 -563 -739 0
-564 563 0
-564 739 0
565 -914 -562 0
-565 914 0
-565 562 0
566 -46 -798 0
-566 46 0
-566 798 0
567 -566 -18 0
-567 566 0
-567 18 0
568 -915 -565 0
-568 915 0
-568 565 0
569 -40 -700 0
-569 40 0
-569 700 0
570 -569 -715 0
-570 569 0
-570 715 0
571 -916 -568 0
-571 916 0
-571 568 0
572 -33 -775 0
-572 33 0
-572 775 0
573 -572 -26 0
-573 572 0
-573 26 0
574 -917 -571 0
-574 917 0
-574 571 0
575 -7 -1 0
-575 7 0
-575 1 0
576 -575 -6 0
-576 575 0
-576 6 0
577 -918 -574 0
-577 918 0
-577 574 0
578 -233 -31 0
-578 233 0
-578 31 0
579 -919 -577 0
-579 919 0
-579 577 0
580 -25 -769 0
-580 25 0
-580 769 0
581 -580 -6 0
-581 580 0
-581 6 0
582 -920 -579 0
-582 920 0
-582 579 0
583 -862 -714 0
-583 862 0
-583 714 0
584 -583 -27 0
-584 583 0
-584 27 0
585 -921 -582 0
-585 921 0
-585 582 0
586 -750 -700 0
-586 750 0
-586 700 0
587 -586 -727 0
-587 586 0
-587 727 0
588 -922 -585 0
-588 922 0
-588 585 0
589 -711 -700 0
-589 711 0
-589 700 0
590 -589 -19 0
-590 589 0
-590 19 0
591 -923 -588 0
-591 923 0
-591 588 0
592 -200 -36 0
-592 200 0
-592 36 0
593 -924 -591 0
-593 924 0
-593 591 0
594 -29 -706 0
-594 29 0
-594 706 0
595 -594 -696 0
-595 594 0
-595 696 0
596 -925 -593 0
-596 925 0
-596 593 0
597 -745 -24 0
-597 745 0
-597 24 0
598 -597 -781 0
-598 597 0
-598 781 0
599 -926 -596 0
-599 926 0
-599 596 0
600 -727 -771 0
-600 727 0
-600 771 0
601 -600 -818 0
-601 600 0
-601 818 0
602 -927 -599 0
-602 927 0
-602 599 0
603 -715 -706 0
-603 715 0
-603 706 0
604 -603 -719 0
-604 603 0
-604 719 0
605 -928 -602 0
-605 928 0
-605 602 0
606 -780 -792 0
-606 780 0
-606 792 0
607 -606 -742 0
-607 606 0
-607 742 0
608 -929 -605 0
-608 929 0
-608 605 0
609 -42 -27 0
-609 42 0
-609 27 0
610 -609 -6 0
-610 609 0
-610 6 0
611 -930 -608 0
-611 930 0
-611 608 0
612 -161 -20 0
-612 161 0
-612 20 0
613 -931 -611 0
-613 931 0
-613 611 0
614 -780 -4 0
-614 780 0
-614 4 0
615 -614 -29 0
-615 614 0
-615 29 0
616 -932 -613 0
-616 932 0
-616 613 0
617 -46 -7 0
-617 46 0
-617 7 0
618 -617 -700 0
-618 617 0
-618 700 0
619 -933 -616 0
-619 933 0
-619 616 0
620 -39 -708 0
-620 39 0
-620 708 0
621 -620 -815 0
-621 620 0
-621 815 0
622 -934 -619 0
-622 934 0
-622 619 0
623 -745 -731 0
-623 745 0
-623 731 0
624 -623 -721 0
-624 623 0
-624 721 0
625 -935 -622 0
-625 935 0
-625 622 0
626 -45 -26 0
-626 45 0
-626 26 0
627 -626 -20 0
-627 626 0
-627 20 0
628 -936 -625 0
-628 936 0
-628 625 0
629 -42 -862 0
-629 42 0
-629 862 0
630 -629 -29 0
-630 629 0
-630 29 0
631 -937 -628 0
-631 937 0
-631 628 0
632 -717 -24 0
-632 717 0
-632 24 0
633 -632 -47 0
-633 632 0
-633 47 0
634 -938 -631 0
-634 938 0
-634 631 0
635 -756 -28 0
-635 756 0
-635 28 0
636 -635 -20 0
-636 635 0
-636 20 0
637 -939 -634 0
-637 939 0
-637 634 0
638 -191 -39 0
-638 191 0
-638 39 0
639 -940 -637 0
-639 940 0
-639 637 0
640 -715 -702 0
-640 715 0
-640 702 0
641 -640 -736 0
-641 640 0
-641 736 0
642 -941 -639 0
-642 941 0
-642 639 0
643 -281 -781 0
-643 281 0
-643 781 0
644 -942 -642 0
-644 942 0
-644 642 0
645 -780 -742 0
-645 780 0
-645 742 0
646 -645 -706 0
-646 645 0
-646 706 0
647 -943 -644 0
-647 943 0
-647 644 0
648 -42 -35 0
-648 42 0
-648 35 0
649 -648 -23 0
-649 648 0
-649 23 0
650 -944 -647 0
-650 944 0
-650 647 0
651 -759 -738 0
-651 759 0
-651 738 0
652 -651 -722 0
-652 651 0
-652 722 0
653 -945 -650 0
-653 945 0
-653 650 0
654 -750 -742 0
-654 750 0
-654 742 0
655 -654 -722 0
-655 654 0
-655 722 0
656 -946 -653 0
-656 946 0
-656 653 0
657 -785 -798 0
-657 785 0
-657 798 0
658 -657 -21 0
-658 657 0
-658 21 0
659 -947 -656 0
-659 947 0
-659 656 0
660 -42 -14 0
-660 42 0
-660 14 0
661 -660 -785 0
-661 660 0
-661 785 0
662 -948 -659 0
-662 948 0
-662 659 0
663 -823 -702 0
-663 823 0
-663 702 0
664 -663 -713 0
-664 663 0
-664 713 0
665 -949 -662 0
-665 949 0
-665 662 0
666 -49 -862 0
-666 49 0
-666 862 0
667 -666 -739 0
-667 666 0
-667 739 0
668 -950 -665 0
-668 950 0
-668 665 0
669 -33 -690 0
-669 33 0
-669 690 0
670 -669 -726 0
-670 669 0
-670 726 0
671 -951 -668 0
-671 951 0
-671 668 0
672 -714 -711 0
-672 714 0
-672 711 0
673 -672 -706 0
-673 672 0
-673 706 0
674 -952 -671 0
-674 952 0
-674 671 0
675 -753 -33 0
-675 753 0
-675 33 0
676 -675 -11 0
-676 675 0
-676 11 0
677 -953 -674 0
-677 953 0
-677 674 0
678 -862 -4 0
-678 862 0
-678 4 0
679 -678 -36 0
-679 678 0
-679 36 0
680 -954 -677 0
-680 954 0
-680 677 0
681 -34 -17 0
-681 34 0
-681 17 0
682 -681 -5 0
-682 681 0
-682 5 0
683 -955 -680 0
-683 955 0
-683 680 0
684 -48 -35 0
-684 48 0
-684 35 0
685 -684 -748 0
-685 684 0
-685 748 0
686 -956 -683 0
-686 956 0
-686 683 0
687 -48 -785 0
-687 48 0
-687 785 0
688 -687 -771 0
-688 687 0
-688 771 0
689 -957 -686 0
-689 957 0
-689 686 0
-690 -2 0
690 2 0
-691 -1 0
691 1 0
-692 -6 0
692 6 0
-693 -54 0
693 54 0
-694 -52 0
694 52 0
-695 -8 0
695 8 0
-696 -9 0
696 9 0
-697 -57 0
697 57 0
-698 -11 0
698 11 0
-699 -60 0
699 60 0
-700 -14 0
700 14 0
-701 -63 0
701 63 0
-702 -15 0
702 15 0
-703 -17 0
703 17 0
-704 -66 0
704 66 0
-705 -7 0
705 7 0
-706 -18 0
706 18 0
-707 -69 0
707 69 0
-708 -10 0
708 10 0
-709 -72 0
709 72 0
-710 -75 0
710 75 0
-711 -22 0
711 22 0
-712 -78 0
712 78 0
-713 -25 0
713 25 0
-714 -24 0
714 24 0
-715 -26 0
715 26 0
-716 -81 0
716 81 0
-717 -27 0
717 27 0
-718 -84 0
718 84 0
-719 -12 0
719 12 0
-720 -87 0
720 87 0
-721 -29 0
721 29 0
-722 -30 0
722 30 0
-723 -90 0
723 90 0
-724 -93 0
724 93 0
-725 -96 0
725 96 0
-726 -32 0
726 32 0
-727 -31 0
727 31 0
-728 -99 0
728 99 0
-729 -102 0
729 102 0
-730 -105 0
730 105 0
-731 -16 0
731 16 0
-732 -108 0
732 108 0
-733 -111 0
733 111 0
-734 -28 0
734 28 0
-735 -114 0
735 114 0
-736 -38 0
736 38 0
-737 -117 0
737 117 0
-738 -33 0
738 33 0
-739 -39 0
739 39 0
-740 -120 0
740 120 0
-741 -123 0
741 123 0
-742 -40 0
742 40 0
-743 -126 0
743 126 0
-744 -129 0
744 129 0
-745 -34 0
745 34 0
-746 -132 0
746 132 0
-747 -135 0
747 135 0
-748 -44 0
748 44 0
-749 -138 0
749 138 0
-750 -45 0
750 45 0
-751 -141 0
751 141 0
-752 -144 0
752 144 0
-753 -42 0
753 42 0
-754 -147 0
754 147 0
-755 -150 0
755 150 0
-756 -46 0
756 46 0
-757 -153 0
757 153 0
-758 -156 0
758 156 0
-759 -48 0
759 48 0
-760 -159 0
760 159 0
-761 -162 0
761 162 0
-762 -165 0
762 165 0
-763 -47 0
763 47 0
-764 -168 0
764 168 0
-765 -171 0
765 171 0
-766 -174 0
766 174 0
-767 -37 0
767 37 0
-768 -177 0
768 177 0
-769 -21 0
769 21 0
-770 -180 0
770 180 0
-771 -5 0
771 5 0
-772 -183 0
772 183 0
-773 -186 0
773 186 0
-774 -189 0
774 189 0
-775 -13 0
775 13 0
-776 -192 0
776 192 0
-777 -195 0
777 195 0
-778 -198 0
778 198 0
-779 -201 0
779 201 0
-780 -49 0
780 49 0
-781 -19 0
781 19 0
-782 -204 0
782 204 0
-783 -207 0
783 207 0
-784 -210 0
784 210 0
-785 -20 0
785 20 0
-786 -213 0
786 213 0
-787 -50 0
787 50 0
-788 -216 0
788 216 0
-789 -219 0
789 219 0
-790 -222 0
790 222 0
-791 -225 0
791 225 0
-792 -43 0
792 43 0
-793 -228 0
793 228 0
-794 -231 0
794 231 0
-795 -234 0
795 234 0
-796 -237 0
796 237 0
-797 -240 0
797 240 0
-798 -4 0
798 4 0
-799 -243 0
799 243 0
-800 -246 0
800 246 0
-801 -249 0
801 249 0
-802 -252 0
802 252 0
-803 -36 0
803 36 0
-804 -255 0
804 255 0
-805 -258 0
805 258 0
-806 -261 0
806 261 0
-807 -264 0
807 264 0
-808 -267 0
808 267 0
-809 -270 0
809 270 0
-810 -273 0
810 273 0
-811 -276 0
811 276 0
-812 -279 0
812 279 0
-813 -282 0
813 282 0
-814 -285 0
814 285 0
-815 -41 0
815 41 0
-816 -288 0
816 288 0
-817 -291 0
817 291 0
-818 -3 0
818 3 0
-819 -294 0
819 294 0
-820 -296 0
820 296 0
-821 -299 0
821 299 0
-822 -302 0
822 302 0
-823 -23 0
823 23 0
-824 -305 0
824 305 0
-825 -307 0
825 307 0
-826 -310 0
826 310 0
-827 -313 0
827 313 0
-828 -316 0
828 316 0
-829 -319 0
829 319 0
-830 -322 0
830 322 0
-831 -325 0
831 325 0
-832 -328 0
832 328 0
-833 -331 0
833 331 0
-834 -334 0
834 334 0
-835 -337 0
835 337 0
-836 -340 0
836 340 0
-837 -343 0
837 343 0
-838 -346 0
838 346 0
-839 -349 0
839 349 0
-840 -352 0
840 352 0
-841 -355 0
841 355 0
-842 -358 0
842 358 0
-843 -361 0
843 361 0
-844 -364 0
844 364 0
-845 -367 0
845 367 0
-846 -370 0
846 370 0
-847 -373 0
847 373 0
-848 -376 0
848 376 0
-849 -379 0
849 379 0
-850 -382 0
850 382 0
-851 -385 0
851 385 0
-852 -388 0
852 388 0
-853 -391 0
853 391 0
-854 -394 0
854 394 0
-855 -397 0
855 397 0
-856 -400 0
856 400 0
-857 -403 0
857 403 0
-858 -406 0
858 406 0
-859 -409 0
859 409 0
-860 -412 0
860 412 0
-861 -415 0
861 415 0
-862 -35 0
862 35 0
-863 -418 0
863 418 0
-864 -421 0
864 421 0
-865 -424 0
865 424 0
-866 -427 0
866 427 0
-867 -430 0
867 430 0
-868 -433 0
868 433 0
-869 -436 0
869 436 0
-870 -439 0
870 439 0
-871 -442 0
871 442 0
-872 -445 0
872 445 0
-873 -448 0
873 448 0
-874 -451 0
874 451 0
-875 -454 0
875 454 0
-876 -456 0
876 456 0
-877 -459 0
877 459 0
-878 -462 0
878 462 0
-879 -465 0
879 465 0
-880 -467 0
880 467 0
-881 -470 0
881 470 0
-882 -473 0
882 473 0
-883 -476 0
883 476 0
-884 -479 0
884 479 0
-885 -482 0
885 482 0
-886 -485 0
886 485 0
-887 -488 0
887 488 0
-888 -491 0
888 491 0
-889 -494 0
889 494 0
-890 -497 0
890 497 0
-891 -499 0
891 499 0
-892 -502 0
892 502 0
-893 -504 0
893 504 0
-894 -506 0
894 506 0
-895 -508 0
895 508 0
-896 -511 0
896 511 0
-897 -514 0
897 514 0
-898 -516 0
898 516 0
-899 -519 0
899 519 0
-900 -522 0
900 522 0
-901 -525 0
901 525 0
-902 -528 0
902 528 0
-903 -531 0
903 531 0
-904 -534 0
904 534 0
-905 -537 0
905 537 0
-906 -540 0
906 540 0
-907 -543 0
907 543 0
-908 -546 0
908 546 0
-909 -549 0
909 549 0
-910 -552 0
910 552 0
-911 -555 0
911 555 0
-912 -558 0
912 558 0
-913 -561 0
913 561 0
-914 -564 0
914 564 0
-915 -567 0
915 567 0
-916 -570 0
916 570 0
-917 -573 0
917 573 0
-918 -576 0
918 576 0
-919 -578 0
919 578 0
-920 -581 0
920 581 0
-921 -584 0
921 584 0
-922 -587 0
922 587 0
-923 -590 0
923 590 0
-924 -592 0
924 592 0
-925 -595 0
925 595 0
-926 -598 0
926 598 0
-927 -601 0
927 601 0
-928 -604 0
928 604 0
-929 -607 0
929 607 0
-930 -610 0
930 610 0
-931 -612 0
931 612 0
-932 -615 0
932 615 0
-933 -618 0
933 618 0
-934 -621 0
934 621 0
-935 -624 0
935 624 0
-936 -627 0
936 627 0
-937 -630 0
937 630 0
-938 -633 0
938 633 0
-939 -636 0
939 636 0
-940 -638 0
940 638 0
-941 -641 0
941 641 0
-942 -643 0
942 643 0
-943 -646 0
943 646 0
-944 -649 0
944 649 0
-945 -652 0
945 652 0
-946 -655 0
946 655 0
-947 -658 0
947 658 0
-948 -661 0
948 661 0
-949 -664 0
949 664 0
-950 -667 0
950 667 0
-951 -670 0
951 670 0
-952 -673 0
952 673 0
-953 -676 0
953 676 0
-954 -679 0
954 679 0
-955 -682 0
955 682 0
-956 -685 0
956 685 0
-957 -688 0
957 688 0
689 0
